(set-logic QF_S)
(declare-fun var0 () String)
(assert (RegexIn var0 (RegexConcat (RegexUnion (RegexStar (Str2Reg "000")) (RegexStar (Str2Reg "11"))) (RegexConcat (RegexStar (RegexUnion (Str2Reg "22") (Str2Reg "333"))) (RegexConcat (RegexStar (RegexStar (Str2Reg "4"))) (RegexConcat (RegexPlus (RegexStar (Str2Reg "5"))) (RegexConcat (RegexPlus (RegexUnion (Str2Reg "666") (Str2Reg "7"))) (RegexConcat (RegexStar (RegexPlus (Str2Reg "88"))) (RegexConcat (RegexUnion (RegexPlus (Str2Reg "999")) (RegexPlus (Str2Reg "aa"))) (RegexConcat (RegexPlus (RegexStar (Str2Reg "bbb"))) (RegexConcat (RegexPlus (RegexUnion (Str2Reg "cc") (Str2Reg "ddd"))) (RegexConcat (RegexPlus (RegexPlus (Str2Reg "eee"))) (RegexConcat (RegexPlus (RegexPlus (Str2Reg "f"))) (RegexConcat (RegexStar (RegexUnion (Str2Reg "gg") (Str2Reg "hhh"))) (RegexConcat (RegexUnion (RegexUnion (Str2Reg "iii") (Str2Reg "j")) (RegexUnion (Str2Reg "k") (Str2Reg "lll"))) (RegexConcat (RegexStar (RegexPlus (Str2Reg "mmm"))) (RegexConcat (RegexUnion (RegexPlus (Str2Reg "nnn")) (RegexPlus (Str2Reg "ooo"))) (RegexConcat (RegexStar (RegexStar (Str2Reg "pp"))) (RegexConcat (RegexStar (RegexStar (Str2Reg "qq"))) (RegexConcat (RegexStar (RegexStar (Str2Reg "rr"))) (RegexConcat (RegexPlus (RegexStar (Str2Reg "ss"))) (RegexConcat (RegexStar (RegexUnion (Str2Reg "t") (Str2Reg "u"))) (RegexConcat (RegexStar (RegexUnion (Str2Reg "vvv") (Str2Reg "ww"))) (RegexConcat (RegexPlus (RegexUnion (Str2Reg "xxx") (Str2Reg "yyy"))) (RegexConcat (RegexPlus (RegexStar (Str2Reg "z"))) (RegexConcat (RegexStar (RegexStar (Str2Reg "AA"))) (RegexConcat (RegexUnion (RegexUnion (Str2Reg "B") (Str2Reg "C")) (RegexUnion (Str2Reg "DDD") (Str2Reg "EEE"))) (RegexConcat (RegexUnion (RegexStar (Str2Reg "FF")) (RegexStar (Str2Reg "GGG"))) (RegexConcat (RegexUnion (RegexPlus (Str2Reg "H")) (RegexPlus (Str2Reg "I"))) (RegexConcat (RegexPlus (RegexPlus (Str2Reg "JJJ"))) (RegexConcat (RegexPlus (RegexPlus (Str2Reg "K"))) (RegexConcat (RegexPlus (RegexPlus (Str2Reg "LLL"))) (RegexConcat (RegexUnion (RegexUnion (Str2Reg "MM") (Str2Reg "NN")) (RegexUnion (Str2Reg "OOO") (Str2Reg "P"))) (RegexConcat (RegexUnion (RegexStar (Str2Reg "QQQ")) (RegexStar (Str2Reg "R"))) (RegexConcat (RegexUnion (RegexPlus (Str2Reg "S")) (RegexPlus (Str2Reg "TT"))) (RegexConcat (RegexStar (RegexStar (Str2Reg "UU"))) (RegexConcat (RegexStar (RegexPlus (Str2Reg "VVV"))) (RegexConcat (RegexPlus (RegexStar (Str2Reg "WWW"))) (RegexConcat (RegexStar (RegexStar (Str2Reg "X"))) (RegexConcat (RegexStar (RegexUnion (Str2Reg "YY") (Str2Reg "ZZ"))) (RegexConcat (RegexStar (RegexUnion (Str2Reg "!!!") (Str2Reg "\""))) (RegexConcat (RegexStar (RegexStar (Str2Reg "#"))) (RegexConcat (RegexUnion (RegexPlus (Str2Reg "$$$")) (RegexPlus (Str2Reg "%%%"))) (RegexConcat (RegexStar (RegexUnion (Str2Reg "&") (Str2Reg "'"))) (RegexConcat (RegexStar (RegexPlus (Str2Reg "(("))) (RegexConcat (RegexUnion (RegexStar (Str2Reg ")))")) (RegexStar (Str2Reg "*"))) (RegexConcat (RegexStar (RegexStar (Str2Reg "++"))) (RegexConcat (RegexUnion (RegexUnion (Str2Reg ",,") (Str2Reg "-")) (RegexUnion (Str2Reg ".") (Str2Reg "//"))) (RegexConcat (RegexUnion (RegexPlus (Str2Reg ":::")) (RegexPlus (Str2Reg ";;"))) (RegexConcat (RegexUnion (RegexStar (Str2Reg "<<")) (RegexStar (Str2Reg "==="))) (RegexConcat (RegexPlus (RegexStar (Str2Reg ">>"))) (RegexConcat (RegexPlus (RegexUnion (Str2Reg "???") (Str2Reg "@@"))) (RegexConcat (RegexPlus (RegexPlus (Str2Reg "[["))) (RegexConcat (RegexUnion (RegexPlus (Str2Reg "\\\\\\")) (RegexPlus (Str2Reg "]]"))) (RegexConcat (RegexUnion (RegexStar (Str2Reg "^^^")) (RegexStar (Str2Reg "__"))) (RegexConcat (RegexUnion (RegexUnion (Str2Reg "``") (Str2Reg "{{")) (RegexUnion (Str2Reg "||") (Str2Reg "}"))) (RegexConcat (RegexPlus (RegexPlus (Str2Reg "~"))) (RegexConcat (RegexPlus (RegexStar (Str2Reg "0"))) (RegexConcat (RegexUnion (RegexPlus (Str2Reg "1")) (RegexPlus (Str2Reg "222"))) (RegexConcat (RegexUnion (RegexUnion (Str2Reg "33") (Str2Reg "4")) (RegexUnion (Str2Reg "555") (Str2Reg "66"))) (RegexConcat (RegexPlus (RegexPlus (Str2Reg "7"))) (RegexConcat (RegexPlus (RegexUnion (Str2Reg "88") (Str2Reg "9"))) (RegexConcat (RegexPlus (RegexStar (Str2Reg "aaa"))) (RegexConcat (RegexStar (RegexUnion (Str2Reg "bb") (Str2Reg "cc"))) (RegexConcat (RegexPlus (RegexPlus (Str2Reg "dd"))) (RegexConcat (RegexPlus (RegexPlus (Str2Reg "eee"))) (RegexConcat (RegexPlus (RegexPlus (Str2Reg "fff"))) (RegexConcat (RegexStar (RegexUnion (Str2Reg "gg") (Str2Reg "hhh"))) (RegexConcat (RegexUnion (RegexStar (Str2Reg "iii")) (RegexStar (Str2Reg "jjj"))) (RegexConcat (RegexUnion (RegexUnion (Str2Reg "kk") (Str2Reg "ll")) (RegexUnion (Str2Reg "mmm") (Str2Reg "nn"))) (RegexConcat (RegexPlus (RegexStar (Str2Reg "o"))) (RegexConcat (RegexStar (RegexStar (Str2Reg "pp"))) (RegexConcat (RegexUnion (RegexStar (Str2Reg "qqq")) (RegexStar (Str2Reg "r"))) (RegexConcat (RegexStar (RegexPlus (Str2Reg "ss"))) (RegexConcat (RegexUnion (RegexUnion (Str2Reg "ttt") (Str2Reg "u")) (RegexUnion (Str2Reg "vv") (Str2Reg "w"))) (RegexConcat (RegexUnion (RegexUnion (Str2Reg "xxx") (Str2Reg "yyy")) (RegexUnion (Str2Reg "z") (Str2Reg "AA"))) (RegexConcat (RegexPlus (RegexStar (Str2Reg "B"))) (RegexConcat (RegexPlus (RegexUnion (Str2Reg "C") (Str2Reg "D"))) (RegexConcat (RegexUnion (RegexUnion (Str2Reg "E") (Str2Reg "FF")) (RegexUnion (Str2Reg "GG") (Str2Reg "HH"))) (RegexConcat (RegexUnion (RegexPlus (Str2Reg "II")) (RegexPlus (Str2Reg "JJ"))) (RegexConcat (RegexPlus (RegexStar (Str2Reg "KKK"))) (RegexConcat (RegexUnion (RegexPlus (Str2Reg "LL")) (RegexPlus (Str2Reg "MMM"))) (RegexConcat (RegexStar (RegexUnion (Str2Reg "NNN") (Str2Reg "OOO"))) (RegexConcat (RegexUnion (RegexUnion (Str2Reg "P") (Str2Reg "QQ")) (RegexUnion (Str2Reg "RRR") (Str2Reg "SSS"))) (RegexConcat (RegexPlus (RegexUnion (Str2Reg "TT") (Str2Reg "UUU"))) (RegexConcat (RegexPlus (RegexStar (Str2Reg "VVV"))) (RegexConcat (RegexStar (RegexPlus (Str2Reg "WW"))) (RegexConcat (RegexUnion (RegexPlus (Str2Reg "XXX")) (RegexPlus (Str2Reg "YYY"))) (RegexConcat (RegexUnion (RegexUnion (Str2Reg "Z") (Str2Reg "!!")) (RegexUnion (Str2Reg "\"") (Str2Reg "##"))) (RegexConcat (RegexPlus (RegexPlus (Str2Reg "$$"))) (RegexConcat (RegexStar (RegexUnion (Str2Reg "%%%") (Str2Reg "&&&"))) (RegexConcat (RegexStar (RegexUnion (Str2Reg "''") (Str2Reg "("))) (RegexConcat (RegexUnion (RegexUnion (Str2Reg "))") (Str2Reg "*")) (RegexUnion (Str2Reg "+++") (Str2Reg ","))) (RegexConcat (RegexUnion (RegexUnion (Str2Reg "---") (Str2Reg "...")) (RegexUnion (Str2Reg "///") (Str2Reg "::"))) (RegexConcat (RegexStar (RegexStar (Str2Reg ";;"))) (RegexConcat (RegexPlus (RegexStar (Str2Reg "<"))) (RegexConcat (RegexUnion (RegexStar (Str2Reg "==")) (RegexStar (Str2Reg ">"))) (RegexConcat (RegexPlus (RegexStar (Str2Reg "?"))) (RegexConcat (RegexUnion (RegexStar (Str2Reg "@@@")) (RegexStar (Str2Reg "[[["))) (RegexConcat (RegexUnion (RegexPlus (Str2Reg "\\\\")) (RegexPlus (Str2Reg "]"))) (RegexConcat (RegexUnion (RegexPlus (Str2Reg "^")) (RegexPlus (Str2Reg "__"))) (RegexConcat (RegexStar (RegexPlus (Str2Reg "```"))) (RegexConcat (RegexPlus (RegexPlus (Str2Reg "{{"))) (RegexConcat (RegexUnion (RegexPlus (Str2Reg "|||")) (RegexPlus (Str2Reg "}}"))) (RegexConcat (RegexPlus (RegexStar (Str2Reg "~~~"))) (RegexConcat (RegexPlus (RegexPlus (Str2Reg "0"))) (RegexConcat (RegexStar (RegexUnion (Str2Reg "111") (Str2Reg "22"))) (RegexConcat (RegexUnion (RegexStar (Str2Reg "33")) (RegexStar (Str2Reg "444"))) (RegexConcat (RegexPlus (RegexPlus (Str2Reg "55"))) (RegexConcat (RegexUnion (RegexPlus (Str2Reg "66")) (RegexPlus (Str2Reg "77"))) (RegexConcat (RegexPlus (RegexStar (Str2Reg "8"))) (RegexConcat (RegexStar (RegexUnion (Str2Reg "999") (Str2Reg "a"))) (RegexConcat (RegexStar (RegexStar (Str2Reg "b"))) (RegexConcat (RegexPlus (RegexPlus (Str2Reg "ccc"))) (RegexConcat (RegexUnion (RegexUnion (Str2Reg "d") (Str2Reg "e")) (RegexUnion (Str2Reg "ff") (Str2Reg "gg"))) (RegexConcat (RegexUnion (RegexStar (Str2Reg "hh")) (RegexStar (Str2Reg "iii"))) (RegexConcat (RegexStar (RegexStar (Str2Reg "jj"))) (RegexConcat (RegexStar (RegexStar (Str2Reg "k"))) (RegexConcat (RegexUnion (RegexStar (Str2Reg "l")) (RegexStar (Str2Reg "m"))) (RegexConcat (RegexPlus (RegexPlus (Str2Reg "nn"))) (RegexConcat (RegexUnion (RegexUnion (Str2Reg "ooo") (Str2Reg "ppp")) (RegexUnion (Str2Reg "q") (Str2Reg "rr"))) (RegexConcat (RegexStar (RegexStar (Str2Reg "s"))) (RegexConcat (RegexUnion (RegexUnion (Str2Reg "ttt") (Str2Reg "u")) (RegexUnion (Str2Reg "vv") (Str2Reg "w"))) (RegexConcat (RegexStar (RegexStar (Str2Reg "xx"))) (RegexConcat (RegexStar (RegexPlus (Str2Reg "yyy"))) (RegexConcat (RegexPlus (RegexStar (Str2Reg "z"))) (RegexConcat (RegexStar (RegexPlus (Str2Reg "AA"))) (RegexConcat (RegexStar (RegexUnion (Str2Reg "B") (Str2Reg "CC"))) (RegexConcat (RegexUnion (RegexPlus (Str2Reg "DD")) (RegexPlus (Str2Reg "EE"))) (RegexConcat (RegexUnion (RegexUnion (Str2Reg "FFF") (Str2Reg "G")) (RegexUnion (Str2Reg "HH") (Str2Reg "III"))) (RegexConcat (RegexPlus (RegexStar (Str2Reg "JJJ"))) (RegexConcat (RegexPlus (RegexUnion (Str2Reg "KK") (Str2Reg "LL"))) (RegexConcat (RegexStar (RegexPlus (Str2Reg "MM"))) (RegexConcat (RegexUnion (RegexUnion (Str2Reg "NN") (Str2Reg "O")) (RegexUnion (Str2Reg "PP") (Str2Reg "Q"))) (RegexConcat (RegexStar (RegexStar (Str2Reg "RRR"))) (RegexConcat (RegexStar (RegexUnion (Str2Reg "S") (Str2Reg "T"))) (RegexConcat (RegexStar (RegexStar (Str2Reg "U"))) (RegexConcat (RegexUnion (RegexUnion (Str2Reg "VV") (Str2Reg "WW")) (RegexUnion (Str2Reg "XX") (Str2Reg "YYY"))) (RegexConcat (RegexUnion (RegexStar (Str2Reg "ZZ")) (RegexStar (Str2Reg "!!"))) (RegexConcat (RegexPlus (RegexPlus (Str2Reg "\"\"\""))) (RegexConcat (RegexUnion (RegexPlus (Str2Reg "##")) (RegexPlus (Str2Reg "$$"))) (RegexConcat (RegexPlus (RegexUnion (Str2Reg "%%%") (Str2Reg "&"))) (RegexConcat (RegexUnion (RegexUnion (Str2Reg "''") (Str2Reg "(")) (RegexUnion (Str2Reg ")") (Str2Reg "**"))) (RegexConcat (RegexUnion (RegexUnion (Str2Reg "++") (Str2Reg ",,,")) (RegexUnion (Str2Reg "--") (Str2Reg "..."))) (RegexConcat (RegexPlus (RegexUnion (Str2Reg "/") (Str2Reg ":"))) (RegexConcat (RegexStar (RegexPlus (Str2Reg ";;;"))) (RegexConcat (RegexPlus (RegexPlus (Str2Reg "<"))) (RegexConcat (RegexStar (RegexPlus (Str2Reg "=="))) (RegexConcat (RegexStar (RegexPlus (Str2Reg ">>"))) (RegexConcat (RegexUnion (RegexStar (Str2Reg "???")) (RegexStar (Str2Reg "@@@"))) (RegexConcat (RegexUnion (RegexStar (Str2Reg "[")) (RegexStar (Str2Reg "\\\\\\"))) (RegexConcat (RegexPlus (RegexUnion (Str2Reg "]]") (Str2Reg "^"))) (RegexConcat (RegexUnion (RegexUnion (Str2Reg "__") (Str2Reg "```")) (RegexUnion (Str2Reg "{{") (Str2Reg "||"))) (RegexConcat (RegexStar (RegexPlus (Str2Reg "}"))) (RegexConcat (RegexStar (RegexStar (Str2Reg "~~~"))) (RegexConcat (RegexStar (RegexPlus (Str2Reg "0"))) (RegexConcat (RegexUnion (RegexPlus (Str2Reg "11")) (RegexPlus (Str2Reg "222"))) (RegexConcat (RegexPlus (RegexStar (Str2Reg "3"))) (RegexConcat (RegexPlus (RegexUnion (Str2Reg "444") (Str2Reg "5"))) (RegexConcat (RegexUnion (RegexPlus (Str2Reg "66")) (RegexPlus (Str2Reg "77"))) (RegexConcat (RegexPlus (RegexStar (Str2Reg "88"))) (RegexConcat (RegexUnion (RegexPlus (Str2Reg "9")) (RegexPlus (Str2Reg "aaa"))) (RegexConcat (RegexUnion (RegexStar (Str2Reg "bb")) (RegexStar (Str2Reg "ccc"))) (RegexConcat (RegexStar (RegexPlus (Str2Reg "ddd"))) (RegexConcat (RegexPlus (RegexStar (Str2Reg "eee"))) (RegexConcat (RegexStar (RegexUnion (Str2Reg "fff") (Str2Reg "gg"))) (RegexConcat (RegexStar (RegexUnion (Str2Reg "hhh") (Str2Reg "iii"))) (RegexConcat (RegexPlus (RegexPlus (Str2Reg "j"))) (RegexConcat (RegexUnion (RegexStar (Str2Reg "kk")) (RegexStar (Str2Reg "ll"))) (RegexConcat (RegexStar (RegexUnion (Str2Reg "mmm") (Str2Reg "nnn"))) (RegexPlus (RegexPlus (Str2Reg "ooo")))))))))))))))))))))))))))))))))))))))))))))))))))))))))))))))))))))))))))))))))))))))))))))))))))))))))))))))))))))))))))))))))))))))))))))))))))))))))))))))))))))))))))))
(check-sat)